72030
[0, 1816, 1815, 1814, 1813, 1812, 1811, 1810, 1809, 1805, 1804, 1803, 1802, 1787, 1786, 1785, 1540, 1539, 1538, 1537, 1542, 1541, 1547, 1543, 1544, 1531, 1530, 1527, 1528, 1529, 1545, 1546, 1553, 1551, 1548, 1549, 1550, 1552, 1554, 1555, 1556, 1557, 1560, 1559, 1558, 1760, 1761, 1762, 1754, 1753, 1755, 1756, 1757, 1759, 1758, 1742, 1741, 1740, 1752, 1751, 1750, 1748, 1747, 1746, 1745, 1744, 1743, 1734, 1735, 1736, 1737, 1738, 1739, 1728, 1727, 1729, 1730, 1731, 1732, 1733, 1721, 1720, 1719, 1724, 1725, 1726, 1715, 1714, 199, 200, 201, 202, 203, 153, 152, 151, 154, 155, 156, 198, 197, 196, 195, 194, 193, 160, 159, 158, 157, 163, 162, 161, 190, 191, 192, 186, 187, 188, 189, 164, 165, 166, 168, 167, 185, 184, 183, 182, 178, 179, 180, 181, 171, 170, 169, 172, 173, 174, 175, 176, 177, 1792, 1793, 1794, 1795, 1796, 1797, 1798, 1799, 1800, 1801, 1791, 1790, 1789, 1788, 1765, 1763, 1766, 1764, 1770, 1767, 1769, 1768, 1773, 1772, 1771, 1535, 1534, 1536, 1776, 1774, 1775, 1777, 1778, 1780, 1779, 1784, 1781, 1783, 1782, 1806, 1807, 1808, 4, 3, 2, 1, 7, 6, 5, 8, 9, 10, 11, 12, 13, 14, 15, 16, 17, 18, 19, 20, 21, 22, 23, 24, 25, 26, 27, 28, 29, 30, 31, 32, 33, 34, 35, 36, 37, 40, 39, 38, 46, 47, 48, 49, 50, 45, 44, 43, 41, 42, 53, 52, 51, 60, 61, 62, 63, 59, 58, 57, 56, 55, 54, 68, 69, 67, 66, 65, 64, 70, 71, 72, 73, 74, 75, 76, 77, 78, 79, 85, 86, 87, 88, 89, 84, 83, 82, 80, 81, 90, 93, 94, 95, 96, 97, 99, 98, 100, 101, 102, 103, 91, 92, 104, 105, 106, 107, 108, 109, 110, 111, 112, 137, 136, 135, 134, 224, 225, 227, 226, 1684, 1683, 1682, 1681, 1680, 1679, 1675, 1678, 1677, 1676, 1687, 1686, 1685, 1689, 1688, 1690, 1691, 1692, 1693, 1694, 1695, 1696, 1697, 1698, 1699, 1700, 1709, 1708, 1707, 1706, 1705, 1704, 1703, 1702, 1701, 1713, 1712, 1711, 1710, 208, 207, 206, 205, 204, 150, 149, 147, 146, 212, 211, 210, 209, 216, 215, 214, 213, 145, 144, 142, 141, 140, 217, 218, 219, 220, 221, 222, 223, 139, 138, 143, 148, 1716, 1717, 1718, 1723, 1722, 1614, 1612, 1613, 1615, 1616, 1617, 1618, 1185, 1186, 1187, 1184, 1183, 1182, 1190, 1181, 1180, 1178, 1176, 1175, 1173, 1168, 1169, 1170, 1171, 1641, 1640, 1643, 1639, 1638, 1635, 1634, 1631, 1630, 1626, 1625, 1627, 1624, 1623, 1622, 1621, 1620, 1619, 1188, 1189, 1179, 1177, 1174, 1172, 1642, 1637, 1636, 1633, 1632, 1629, 1628, 1610, 1609, 1611, 1601, 1600, 1599, 1602, 1603, 1604, 1605, 1606, 1607, 1608, 1569, 1570, 1571, 1572, 1573, 1574, 1492, 1493, 1565, 1566, 1567, 1568, 1561, 1562, 1563, 1564, 1494, 1495, 1496, 1491, 1575, 1576, 1577, 1578, 1579, 1580, 1581, 1582, 1583, 1584, 1585, 1589, 1588, 1586, 1587, 1594, 1593, 1592, 1591, 1590, 1215, 1214, 1595, 1596, 1597, 1598, 1213, 1212, 1211, 1210, 1209, 1216, 1217, 1218, 1249, 1250, 1204, 1205, 1206, 1207, 1208, 1198, 1197, 1199, 1200, 1201, 1202, 1203, 1251, 1252, 1253, 1258, 1257, 1256, 1255, 1254, 1196, 1195, 1194, 1193, 1192, 1191, 1268, 1267, 1266, 1265, 1264, 1262, 1263, 1269, 1270, 1271, 1272, 1274, 1273, 1275, 1276, 1277, 1286, 1285, 1284, 1283, 1282, 1383, 1384, 1385, 1388, 1389, 1390, 1391, 1360, 1359, 1358, 1346, 1345, 1344, 1343, 1369, 1368, 1367, 1366, 1365, 1364, 1363, 1362, 1361, 1377, 1376, 1375, 1374, 1373, 1372, 1371, 1370, 1332, 1331, 1330, 1329, 1328, 1327, 1326, 1325, 1324, 1323, 1322, 1321, 1089, 1090, 1091, 1094, 1093, 1092, 1119, 1118, 1098, 1097, 1096, 1095, 1088, 1087, 1085, 1086, 1080, 1079, 1078, 1077, 1076, 319, 321, 320, 317, 318, 316, 315, 314, 313, 303, 302, 300, 301, 299, 298, 297, 296, 305, 304, 306, 307, 308, 309, 310, 311, 312, 1105, 1106, 1107, 1108, 1109, 1110, 1111, 1112, 1113, 1114, 1115, 1116, 1117, 1099, 1100, 1101, 1102, 1103, 1104, 1082, 1081, 1075, 1074, 1073, 328, 329, 330, 331, 334, 333, 332, 1084, 1083, 356, 357, 358, 359, 363, 362, 361, 360, 1342, 1341, 1340, 1339, 1338, 1337, 1336, 364, 366, 365, 367, 368, 370, 369, 380, 371, 379, 381, 384, 382, 383, 385, 396, 397, 395, 394, 398, 400, 399, 401, 402, 404, 403, 405, 406, 407, 408, 421, 420, 419, 409, 410, 411, 413, 412, 414, 415, 416, 417, 418, 423, 422, 433, 432, 431, 434, 435, 436, 442, 441, 440, 439, 438, 437, 454, 453, 452, 444, 445, 446, 443, 1407, 1406, 1405, 1404, 1403, 1402, 1413, 1412, 1411, 1410, 1409, 1408, 1420, 1419, 1418, 1417, 1416, 1415, 1414, 1240, 1241, 1242, 1243, 1232, 1246, 1247, 1248, 1245, 1244, 1231, 1230, 1229, 1228, 1227, 1225, 1224, 1223, 1222, 1220, 1219, 1221, 1457, 1446, 1445, 1444, 1443, 1442, 1441, 1440, 1439, 1438, 1437, 1436, 1435, 469, 468, 1425, 1424, 1423, 1434, 1433, 1432, 1431, 1226, 1430, 1429, 1428, 1427, 1426, 1422, 1421, 447, 448, 449, 450, 451, 455, 456, 462, 461, 460, 459, 588, 587, 586, 585, 594, 593, 592, 591, 590, 589, 458, 457, 613, 614, 615, 616, 612, 611, 617, 618, 619, 620, 621, 622, 623, 624, 625, 626, 627, 628, 629, 637, 638, 639, 640, 641, 642, 643, 644, 645, 647, 646, 648, 649, 650, 651, 652, 1000, 1001, 1002, 1003, 1004, 1005, 996, 991, 992, 993, 994, 995, 997, 1006, 998, 999, 1017, 1015, 1009, 1008, 1018, 1007, 1019, 1020, 1023, 1022, 1021, 987, 986, 1039, 1040, 1041, 1042, 1043, 1044, 971, 970, 1045, 1046, 1047, 1048, 1038, 1037, 1036, 1049, 1050, 1051, 1052, 1053, 1054, 1055, 1056, 343, 344, 345, 346, 347, 348, 349, 354, 353, 350, 342, 340, 338, 335, 336, 337, 1069, 1068, 1067, 1065, 1066, 1064, 1063, 1061, 1062, 1059, 1060, 1058, 1057, 969, 968, 966, 967, 965, 964, 962, 963, 961, 960, 958, 959, 957, 956, 955, 954, 953, 952, 951, 950, 906, 905, 903, 904, 902, 901, 899, 900, 897, 898, 895, 896, 893, 894, 892, 891, 890, 889, 888, 887, 886, 885, 850, 849, 842, 843, 845, 844, 851, 873, 852, 872, 871, 870, 859, 860, 861, 862, 863, 864, 869, 866, 865, 858, 857, 856, 855, 854, 853, 846, 841, 840, 839, 838, 847, 848, 837, 836, 835, 834, 833, 832, 824, 823, 820, 819, 818, 817, 816, 815, 814, 809, 808, 806, 805, 807, 798, 797, 796, 795, 813, 794, 793, 792, 791, 790, 775, 774, 773, 770, 769, 783, 784, 785, 786, 787, 788, 789, 776, 777, 778, 779, 780, 781, 782, 683, 684, 685, 687, 686, 688, 682, 681, 680, 679, 678, 677, 676, 675, 634, 635, 636, 633, 632, 631, 630, 693, 695, 694, 696, 697, 698, 699, 700, 692, 691, 690, 689, 701, 702, 703, 704, 705, 706, 708, 707, 606, 607, 608, 609, 610, 605, 604, 603, 602, 710, 709, 601, 600, 599, 598, 597, 596, 595, 582, 583, 581, 580, 577, 576, 574, 463, 464, 465, 466, 467, 573, 570, 554, 553, 556, 555, 559, 557, 558, 560, 564, 561, 563, 562, 565, 566, 567, 568, 569, 571, 572, 517, 518, 519, 521, 520, 527, 522, 524, 523, 528, 529, 530, 531, 532, 533, 535, 534, 546, 545, 544, 541, 536, 540, 539, 542, 543, 537, 538, 547, 550, 548, 549, 551, 552, 526, 516, 514, 512, 511, 508, 507, 504, 505, 499, 496, 495, 492, 491, 488, 487, 486, 485, 489, 490, 493, 494, 497, 498, 500, 503, 506, 509, 510, 513, 515, 525, 502, 501, 472, 471, 470, 474, 473, 477, 475, 476, 478, 479, 480, 482, 481, 483, 484, 1451, 1452, 1450, 1453, 1449, 1454, 1448, 1467, 1468, 1471, 1469, 1470, 1472, 1475, 1473, 1474, 1476, 1477, 1479, 1478, 1480, 1482, 1481, 1483, 1484, 1485, 1487, 1486, 1489, 1488, 1490, 1500, 1501, 1502, 1503, 1504, 1505, 1506, 1513, 1512, 1516, 1515, 1514, 1518, 1517, 1519, 1520, 1521, 1522, 1525, 1523, 1524, 1532, 1533, 1526, 1511, 1510, 1509, 1508, 1507, 1497, 1498, 1499, 1460, 1461, 1459, 1458, 1465, 1464, 1463, 1462, 1466, 1447, 1456, 1455, 1237, 1236, 1235, 1234, 1233, 1238, 1239, 1401, 1400, 1399, 1398, 1397, 1260, 1261, 1259, 1387, 1386, 1396, 1395, 1394, 1393, 1392, 1357, 1347, 1356, 1355, 1354, 1353, 1352, 1351, 1350, 1349, 1348, 387, 386, 388, 389, 390, 393, 392, 391, 430, 429, 428, 427, 426, 425, 424, 1013, 1012, 1010, 1014, 1016, 1011, 1027, 1026, 1025, 1024, 1031, 1030, 1029, 1028, 378, 377, 376, 375, 374, 373, 372, 1034, 1033, 1032, 1035, 355, 352, 351, 341, 339, 1072, 327, 326, 324, 325, 323, 322, 1070, 1071, 972, 973, 982, 983, 984, 985, 988, 989, 990, 979, 980, 981, 978, 977, 976, 975, 974, 936, 937, 938, 939, 940, 941, 942, 943, 935, 944, 945, 946, 947, 948, 949, 932, 933, 934, 925, 924, 923, 922, 926, 921, 920, 917, 916, 915, 914, 913, 912, 911, 910, 909, 867, 868, 875, 874, 880, 879, 878, 877, 876, 881, 882, 883, 884, 825, 826, 827, 828, 829, 830, 831, 821, 822, 772, 771, 768, 762, 763, 764, 765, 766, 759, 760, 761, 767, 751, 752, 753, 750, 754, 755, 756, 757, 758, 743, 734, 735, 733, 736, 737, 738, 741, 740, 739, 748, 747, 746, 745, 744, 742, 725, 724, 722, 726, 727, 731, 728, 729, 712, 711, 713, 730, 732, 723, 719, 720, 721, 717, 716, 715, 714, 749, 584, 579, 578, 575, 674, 673, 653, 654, 655, 656, 657, 659, 658, 660, 661, 662, 670, 671, 672, 669, 668, 667, 666, 665, 664, 663, 918, 804, 803, 802, 801, 800, 799, 812, 811, 810, 919, 927, 928, 929, 930, 931, 908, 907, 1320, 1319, 1318, 1317, 1310, 1309, 1308, 1307, 1306, 1305, 1304, 1303, 1127, 1128, 1134, 1135, 1136, 1141, 1142, 1143, 1137, 1138, 1139, 1140, 1298, 1299, 1300, 1301, 1302, 1311, 1312, 1313, 1314, 1315, 1316, 1333, 1334, 1335, 1378, 1379, 1297, 1296, 1295, 1294, 1293, 1292, 1291, 1290, 1289, 1288, 1287, 1278, 1279, 1280, 1281, 1380, 1381, 1382, 1126, 1125, 1124, 1123, 1129, 1130, 1131, 1133, 1132, 1153, 1144, 1145, 1147, 1146, 1148, 1149, 1150, 1665, 1664, 1667, 1666, 1669, 1668, 1663, 1661, 1658, 1657, 1655, 1654, 1653, 1652, 1647, 1648, 1650, 1165, 1166, 1164, 1163, 1160, 1158, 1157, 1156, 1155, 1154, 1152, 1151, 277, 276, 275, 274, 273, 267, 266, 265, 264, 263, 255, 254, 253, 252, 251, 250, 249, 242, 243, 241, 131, 130, 129, 128, 125, 124, 123, 126, 244, 245, 246, 247, 248, 257, 258, 259, 260, 261, 262, 268, 269, 270, 271, 272, 281, 282, 283, 284, 285, 286, 287, 279, 280, 278, 1670, 1662, 1660, 1659, 1674, 1673, 1672, 1671, 239, 238, 237, 236, 235, 234, 233, 240, 232, 231, 230, 229, 228, 133, 132, 127, 114, 115, 113, 116, 118, 117, 119, 120, 122, 121, 256, 1646, 1645, 1644, 1656, 1651, 1649, 1167, 1162, 1161, 1159, 1122, 1121, 1120, 295, 294, 292, 293, 291, 289, 288, 290, 1749, 718]
